10 33 11
1 1 0 1
1 2 3 2
1 3 5 6 4
1 4 9 7 8
1 5 11 18 12 10
1 6 15 16 14 17
1 7 18 21 20 19
1 8 23 22 24 25
1 9 28 29 27 26
1 10 33 30 32 31
1
1
1
1
1
1
1
1
1
1
1
1
1
1
1
1
1
1
1
1
1
1
1
1
1
1
1
1
1
1
1
1
1